NAME : bier127.tsp
TYPE : TOUR
DIMENSION : 127
TOUR_LENGTH : 121739.67755636157
TOUR_SECTION
1
16
37
36
35
40
43
34
42
39
38
26
25
33
122
28
29
32
98
97
123
95
93
127
107
111
112
94
46
118
48
53
49
47
55
66
124
52
5
56
121
54
45
103
44
57
51
2
50
13
115
10
120
7
114
105
15
106
6
24
23
108
20
4
22
19
72
8
67
59
62
91
61
60
116
90
9
11
3
100
58
64
113
65
99
92
89
125
104
110
85
86
87
88
109
96
119
63
102
101
83
82
126
81
84
117
78
76
75
69
70
71
68
73
74
77
18
21
17
79
80
31
27
30
41
14
12
-1
